Ti-relaxed                              
   1.00000000000000     
    11.7433469995940527   -0.0000046229752895   -0.0000036303848014
    -5.8717127108570324   10.1700117102772420    0.0000048064948527
    -0.0000027512662480    0.0000025573771656    9.3441978509648962
   O    Ti
     1    64
Direct
  0.5833905086382813  0.4167449989131740  0.6249940832146876
  0.1663498837213808  0.0828070184679177  0.2497686462609181
  0.9997309812084438  0.0003034754673976  0.0001097770900884
  0.4161755747985723  0.0823378017632450  0.2501169089347073
  0.2494760159021325  0.9996814151452256  0.0002335992848757
  0.6664646584083513  0.0828027697750500  0.2497688915612031
  0.5002113319073942  0.9996775813263241  0.0002334441717693
  0.9166671298222155  0.0833284068004119  0.2512962480684351
  0.7505784055190716  0.0003008133945883  0.0001069344201028
  0.1663379287273585  0.3335452689149179  0.2497702166553424
  0.9997214089744588  0.2494315984879663  0.0001187325749044
  0.4153467817871430  0.3326888675249435  0.2509355458485771
  0.2489975180873927  0.2495091063646271  0.9998875509282570
  0.6673588456494670  0.3326885883532000  0.2509378681828665
  0.4993499272053512  0.2486844496786986  0.9990641217836682
  0.9172241859132910  0.3335472420901766  0.2497714612689634
  0.7505260671212639  0.2495060361406587  0.9998930174080414
  0.1669621441290943  0.5839097408645557  0.2498985964247282
  0.0003452336648309  0.4997908808524940  0.0002308452706359
  0.4161641622154733  0.5838680283305777  0.2500966391924280
  0.2494606274425664  0.4997933234407910  0.0002318693200820
  0.6673551743071329  0.5846939505392044  0.2509484157213819
  0.4993515417217651  0.5006960503752822  0.9990548201800706
  0.9177250389519003  0.5838719127608059  0.2500896069541909
  0.7513561273022660  0.5006941809060166  0.9990513209838596
  0.1669714096943764  0.8330627430491049  0.2498893312712198
  0.0003565025648058  0.7505715590799440  0.0002282662123108
  0.4161000012973020  0.8330598182233118  0.2498868554022522
  0.2499993481432554  0.7499963722442615  0.9987081154565942
  0.6664569137912864  0.8336851065963842  0.2497728259491723
  0.5002185924680020  0.7505664017050222  0.0002292305916569
  0.9172407512924821  0.8336881749448608  0.2497738413181168
  0.7505383903195906  0.7510654516526856  0.9999150259169909
  0.1664593277740849  0.0835473363926056  0.7507636725705567
  0.0001451579856564  0.9999236807575898  0.4999702752413242
  0.4157577080277193  0.0815002131640199  0.7526636385576353
  0.2502096419090023  0.9997924570590158  0.4992308701734061
  0.6671020704220325  0.0835456125396234  0.7507645677965726
  0.4995926528070953  0.9997879681244157  0.4992317251243605
  0.9166845731815840  0.0833541713778914  0.7503355725504051
  0.7497906489830726  0.9999199136435450  0.4999724901876590
  0.1664431181165682  0.3329252280177926  0.7507605123242556
  0.0001326420028818  0.2502456300168845  0.4999624115089816
  0.4160462114435575  0.3330561923515276  0.7543550766944520
  0.2481553061270816  0.2490899542460383  0.4973263051952728
  0.6670337946402398  0.3330612124739503  0.7543468962425308
  0.4997065543732830  0.2493883826154715  0.4956305378061714
  0.9165007023309286  0.3329227448077035  0.7507602486062979
  0.7509513784314237  0.2490848436607962  0.4973227903310544
  0.1665747737330534  0.5831276327008155  0.7500199621002892
  0.0002533516428471  0.5004426003695883  0.4992287264807445
  0.4157413603417339  0.5842948882774763  0.7526761289087602
  0.2502046110443388  0.5004402519051325  0.4992285521259703
  0.6670192969710342  0.5840098477302931  0.7543288259616645
  0.4997222613209402  0.5003726736913237  0.4956533000052517
  0.9185770547029435  0.5842989777004775  0.7526798631515277
  0.7506672981758058  0.5003687440397755  0.4956570611681173
  0.1665873495867203  0.8334814787962870  0.7500273528725074
  0.0002702681861706  0.7498426436976473  0.4992323280119848
  0.4169087571779002  0.8334778382526693  0.7500297435013508
  0.2500169968722972  0.7500213724045039  0.4996586521956417
  0.6671101581304058  0.8335981257816130  0.7507637148148234
  0.4995845827777572  0.7498416452474359  0.4992329881976190
  0.9165048108435130  0.8336034085953798  0.7507624433603723
  0.7509667726346763  0.7519220118762888  0.4973100964241226
 
  0.00000000E+00  0.00000000E+00  0.00000000E+00
  0.00000000E+00  0.00000000E+00  0.00000000E+00
  0.00000000E+00  0.00000000E+00  0.00000000E+00
  0.00000000E+00  0.00000000E+00  0.00000000E+00
  0.00000000E+00  0.00000000E+00  0.00000000E+00
  0.00000000E+00  0.00000000E+00  0.00000000E+00
  0.00000000E+00  0.00000000E+00  0.00000000E+00
  0.00000000E+00  0.00000000E+00  0.00000000E+00
  0.00000000E+00  0.00000000E+00  0.00000000E+00
  0.00000000E+00  0.00000000E+00  0.00000000E+00
  0.00000000E+00  0.00000000E+00  0.00000000E+00
  0.00000000E+00  0.00000000E+00  0.00000000E+00
  0.00000000E+00  0.00000000E+00  0.00000000E+00
  0.00000000E+00  0.00000000E+00  0.00000000E+00
  0.00000000E+00  0.00000000E+00  0.00000000E+00
  0.00000000E+00  0.00000000E+00  0.00000000E+00
  0.00000000E+00  0.00000000E+00  0.00000000E+00
  0.00000000E+00  0.00000000E+00  0.00000000E+00
  0.00000000E+00  0.00000000E+00  0.00000000E+00
  0.00000000E+00  0.00000000E+00  0.00000000E+00
  0.00000000E+00  0.00000000E+00  0.00000000E+00
  0.00000000E+00  0.00000000E+00  0.00000000E+00
  0.00000000E+00  0.00000000E+00  0.00000000E+00
  0.00000000E+00  0.00000000E+00  0.00000000E+00
  0.00000000E+00  0.00000000E+00  0.00000000E+00
  0.00000000E+00  0.00000000E+00  0.00000000E+00
  0.00000000E+00  0.00000000E+00  0.00000000E+00
  0.00000000E+00  0.00000000E+00  0.00000000E+00
  0.00000000E+00  0.00000000E+00  0.00000000E+00
  0.00000000E+00  0.00000000E+00  0.00000000E+00
  0.00000000E+00  0.00000000E+00  0.00000000E+00
  0.00000000E+00  0.00000000E+00  0.00000000E+00
  0.00000000E+00  0.00000000E+00  0.00000000E+00
  0.00000000E+00  0.00000000E+00  0.00000000E+00
  0.00000000E+00  0.00000000E+00  0.00000000E+00
  0.00000000E+00  0.00000000E+00  0.00000000E+00
  0.00000000E+00  0.00000000E+00  0.00000000E+00
  0.00000000E+00  0.00000000E+00  0.00000000E+00
  0.00000000E+00  0.00000000E+00  0.00000000E+00
  0.00000000E+00  0.00000000E+00  0.00000000E+00
  0.00000000E+00  0.00000000E+00  0.00000000E+00
  0.00000000E+00  0.00000000E+00  0.00000000E+00
  0.00000000E+00  0.00000000E+00  0.00000000E+00
  0.00000000E+00  0.00000000E+00  0.00000000E+00
  0.00000000E+00  0.00000000E+00  0.00000000E+00
  0.00000000E+00  0.00000000E+00  0.00000000E+00
  0.00000000E+00  0.00000000E+00  0.00000000E+00
  0.00000000E+00  0.00000000E+00  0.00000000E+00
  0.00000000E+00  0.00000000E+00  0.00000000E+00
  0.00000000E+00  0.00000000E+00  0.00000000E+00
  0.00000000E+00  0.00000000E+00  0.00000000E+00
  0.00000000E+00  0.00000000E+00  0.00000000E+00
  0.00000000E+00  0.00000000E+00  0.00000000E+00
  0.00000000E+00  0.00000000E+00  0.00000000E+00
  0.00000000E+00  0.00000000E+00  0.00000000E+00
  0.00000000E+00  0.00000000E+00  0.00000000E+00
  0.00000000E+00  0.00000000E+00  0.00000000E+00
  0.00000000E+00  0.00000000E+00  0.00000000E+00
  0.00000000E+00  0.00000000E+00  0.00000000E+00
  0.00000000E+00  0.00000000E+00  0.00000000E+00
  0.00000000E+00  0.00000000E+00  0.00000000E+00
  0.00000000E+00  0.00000000E+00  0.00000000E+00
  0.00000000E+00  0.00000000E+00  0.00000000E+00
  0.00000000E+00  0.00000000E+00  0.00000000E+00
  0.00000000E+00  0.00000000E+00  0.00000000E+00
