SYSTEM = OPT
ISMEAR = 1
SIGMA = 0.1

ISTART = 0
ICHARG = 2

IBRION = 2
POTIM = 0.2
NSW = 100
NELM = 100
ENCUT = 500
EDIFF = 1E-6
EDIFFG = -0.01
PREC = Accurate
LWAVE = .FALSE.
LCHARG = .FALSE.
LREAL = .FALSE.
NPAR = 4
ISYM = 2

ISIF = 3
